Minimize

10 x_0 + 150 x_1 + 150 x_2 + 100 x_3 + 120 x_4


Subject To

a0: 10 x_0 + 150 x_1 <= 150
a1: 150 x_2 <= 150
a2: 100 x_3 + 120 x_4 <= 150
b0: 5 x_0 + 4 x_1 + 4 x_2 + 2 x_3 + 5 x_4 - 3 x_0 - 3 x_1 - 3 x_2 - 3 x_3 - 3 x_4 >= 0
c0: 1 x_0 + 1 x_1 + 0 x_2 + 0 x_3 + 0 x_4 >= 1
c1: 0 x_0 + 0 x_1 + 1 x_2 + 0 x_3 + 0 x_4 >= 1
c2: 0 x_0 + 0 x_1 + 0 x_2 + 1 x_3 + 1 x_4 >= 1




Binary

x_0 x_1 x_2 x_3 x_4

 


End
